NAME: tsp15_14
COMMENT: 15-tsp problem (Padberg/Rinaldi)
TYPE: TSP
DIMENSION: 15
EDGE_WEIGHT_TYPE : EUC_2D
NODE_COORD_SECTION
1 5 33
2 32 8
3 34 5
4 8 10
5 32 17
6 20 36
7 32 9
8 25 5
9 15 18
10 6 35
11 10 34
12 40 23
13 39 27
14 0 34
15 22 6
